46

C     0.405590000     1.244710000    -0.462220000
C     1.543670000     2.041870000    -0.731960000
C     2.260140000     1.469750000    -1.812680000
C     1.495930000     0.357220000    -2.283470000
C     0.354570000     0.207830000    -1.470030000
C    -0.756010000    -0.760550000    -1.762160000
C    -1.463070000    -1.383530000    -0.588980000
C    -1.178890000    -2.745840000    -0.262930000
C    -1.760630000    -3.342150000     0.832660000
C    -2.666010000    -2.620520000     1.646370000
C    -3.246110000    -3.198680000     2.804300000
C    -4.134780000    -2.490240000     3.579700000
C    -4.485130001    -1.167380000     3.230860000
C    -3.937640000    -0.578820000     2.113340000
C    -3.017440000    -1.283190000     1.296490000
C    -2.408210000    -0.691400000     0.146310000
C    -2.812190000     0.678440000    -0.277530000
C    -4.066370000     0.873560000    -0.941780000
C    -4.958290001    -0.196140000    -1.206700000
C    -6.157630001     0.025000000    -1.845610000
C    -6.516670001     1.328570000    -2.250820000
C    -5.666900001     2.385260000    -2.015840000
C    -4.423630001     2.189530000    -1.362720000
C    -3.530100000     3.268170000    -1.134330000
C    -2.322990000     3.048420000    -0.509920000
C    -1.963360000     1.743510000    -0.057130000
C    -0.622920000     1.531860000     0.586550000
H     1.836790000     2.913100000    -0.152420000
H     3.190220000     1.844170000    -2.236290000
H     1.765140000    -0.308390000    -3.101630000
H    -1.493640000    -0.196470000    -2.359660000
H    -0.359120000    -1.556070000    -2.404540000
H    -1.509460000    -4.365040001     1.109590000
H    -2.968300000    -4.221020001     3.073180000
H    -4.569770001    -2.950090000     4.470420001
H    -5.189380001    -0.609160000     3.852030000
H    -4.202310001     0.446300000     1.846180000
H    -4.679020001    -1.203240000    -0.891790000
H    -6.833840001    -0.810630000    -2.039580000
H    -7.471060001     1.497070000    -2.755520000
H    -5.939260001     3.395140000    -2.333990000
H    -3.820210000     4.262690001    -1.474220000
H    -0.680390000     0.690960000     1.289050000
H    -0.318060000     2.425970000     1.144400000
H    -1.640100000     3.873160000    -0.360940000
H    -0.499850000    -3.313840000    -0.883420000


